Problem:    sfilata
Rows:       11
Columns:    17 (17 integer, 17 binary)
Non-zeros:  51
Status:     INTEGER OPTIMAL
Objective:  costi_totali = 50 (MINimum)

   No.   Row name        Activity     Lower bound   Upper bound
------ ------------    ------------- ------------- -------------
     1 flussi[1]                   0            -0             = 
     2 flussi[2]                   0            -0             = 
     3 flussi[3]                   0            -0             = 
     4 flussi[4]                   0            -0             = 
     5 flussi[5]                   0            -0             = 
     6 flussi[6]                   0            -0             = 
     7 flussi[7]                   0            -0             = 
     8 flussi[8]                   0            -0             = 
     9 partenza                    1             1             = 
    10 arrivo                      1             1             = 
    11 costi_totali               50                             

   No. Column name       Activity     Lower bound   Upper bound
------ ------------    ------------- ------------- -------------
     1 scelta[0,1]  *              0             0             1 
     2 scelta[1,3]  *              0             0             1 
     3 scelta[1,4]  *              0             0             1 
     4 scelta[0,2]  *              0             0             1 
     5 scelta[2,3]  *              0             0             1 
     6 scelta[2,5]  *              0             0             1 
     7 scelta[0,3]  *              1             0             1 
     8 scelta[3,6]  *              1             0             1 
     9 scelta[5,4]  *              0             0             1 
    10 scelta[4,5]  *              0             0             1 
    11 scelta[4,7]  *              0             0             1 
    12 scelta[5,8]  *              0             0             1 
    13 scelta[6,7]  *              0             0             1 
    14 scelta[6,8]  *              0             0             1 
    15 scelta[6,9]  *              1             0             1 
    16 scelta[7,9]  *              0             0             1 
    17 scelta[8,9]  *              0             0             1 

Integer feasibility conditions:

KKT.PE: max.abs.err = 0.00e+00 on row 0
        max.rel.err = 0.00e+00 on row 0
        High quality

KKT.PB: max.abs.err = 0.00e+00 on row 0
        max.rel.err = 0.00e+00 on row 0
        High quality

End of output
